Version identifier: 12.10.0.0 | 2019-11-26 | 843d4de
CPXPARAM_WorkMem                                 28672
Tried aggregator 2 times.
MIP Presolve modified 96 coefficients.
Aggregator did 20 substitutions.
Reduced MIP has 115 rows, 150 columns, and 525 nonzeros.
Reduced MIP has 150 binaries, 0 generals, 0 SOSs, and 0 indicators.
Presolve time = 0,00 sec. (0,70 ticks)
Found incumbent of value 1348,000000 after 0,00 sec. (1,67 ticks)
Probing time = 0,00 sec. (0,20 ticks)
Tried aggregator 1 time.
Detecting symmetries...
MIP Presolve eliminated 15 rows and 0 columns.
MIP Presolve added 30 rows and 0 columns.
Reduced MIP has 130 rows, 150 columns, and 540 nonzeros.
Reduced MIP has 150 binaries, 0 generals, 0 SOSs, and 0 indicators.
Presolve time = 0,00 sec. (0,63 ticks)
Probing time = 0,00 sec. (0,19 ticks)
Clique table members: 346.
MIP emphasis: balance optimality and feasibility.
MIP search method: dynamic search.
Parallel mode: deterministic, using up to 16 threads.
Root relaxation solution time = 0,00 sec. (0,72 ticks)

        Nodes                                         Cuts/
   Node  Left     Objective  IInf  Best Integer    Best Bound    ItCnt     Gap

*     0+    0                         1348,0000        0,0000           100,00%
*     0+    0                          792,0000        0,0000           100,00%
*     0+    0                          760,0000        0,0000           100,00%
*     0+    0                          714,0000        0,0000           100,00%
      0     0      398,8333    73      714,0000      398,8333       94   44,14%
      0     0      405,8787    73      714,0000     Cuts: 106      150   43,15%
      0     0      426,7492    73      714,0000     Cuts: 132      215   40,23%
      0     0      431,6892    73      714,0000     Cuts: 118      258   39,54%
      0     0      440,3018    73      714,0000      Cuts: 62      309   38,33%
      0     0      448,6238    73      714,0000      Cuts: 59      365   37,17%
      0     0      452,0196    73      714,0000      Cuts: 75      416   36,69%
      0     0      455,0862    73      714,0000      Cuts: 40      484   36,26%
      0     0      458,3768    73      714,0000      Cuts: 36      548   35,80%
      0     0      461,2752    73      714,0000      Cuts: 41      605   35,40%
      0     0      463,6130    73      714,0000      Cuts: 37      659   35,07%
      0     0      465,1449    73      714,0000      Cuts: 25      701   34,85%
      0     0      466,4917    73      714,0000      Cuts: 42      741   34,67%
      0     0      468,4765    73      714,0000      Cuts: 32      780   34,39%
      0     0      469,3163    73      714,0000      Cuts: 48      819   34,27%
      0     0      470,2339    73      714,0000      Cuts: 33      851   34,14%
      0     0      470,9616    73      714,0000      Cuts: 15      889   34,04%
      0     0      472,5780    73      714,0000      Cuts: 39      919   33,81%
      0     0      473,3315    73      714,0000      Cuts: 24      958   33,71%
      0     0      473,9125    73      714,0000      Cuts: 29      995   33,63%
      0     0      474,1691    73      714,0000      Cuts: 15     1030   33,59%
      0     0      474,3464    73      714,0000      Cuts: 21     1057   33,56%
      0     0      474,5780    73      714,0000      Cuts: 24     1083   33,53%
      0     0      474,7027    73      714,0000      Cuts: 18     1107   33,52%
*     0+    0                          706,0000      474,7027            32,76%
      0     0      474,7181    73      706,0000      Cuts: 11     1116   31,33%
      0     0      480,3747    73      706,0000      Cuts: 24     1253   31,33%
      0     0      487,1898    73      706,0000      Cuts: 55     1319   30,99%
      0     0      490,7761    73      706,0000      Cuts: 45     1386   30,48%
      0     0      494,4952    73      706,0000      Cuts: 52     1453   29,96%
      0     0      496,8328    73      706,0000      Cuts: 48     1507   29,63%
      0     0      499,1789    73      706,0000      Cuts: 41     1563   29,29%
      0     0      499,9292    73      706,0000      Cuts: 27     1594   29,19%
      0     0      501,0324    73      706,0000      Cuts: 23     1633   29,03%
      0     0      501,2598    73      706,0000      Cuts: 33     1661   29,00%
      0     0      501,7442    73      706,0000      Cuts: 22     1703   28,93%
      0     0      501,9213    73      706,0000      Cuts: 28     1734   28,91%
      0     0      502,0290    73      706,0000      Cuts: 21     1760   28,89%
      0     2      502,0290   115      706,0000      528,1667     1760   25,19%
Elapsed time = 0,50 sec. (184,68 ticks, tree = 0,02 MB, solutions = 5)

GUB cover cuts applied:  12
Clique cuts applied:  28
Cover cuts applied:  74
Flow cuts applied:  1
Mixed integer rounding cuts applied:  45
Zero-half cuts applied:  47
Lift and project cuts applied:  8
Gomory fractional cuts applied:  1

Root node processing (before b&c):
  Real time             =    0,49 sec. (184,44 ticks)
Parallel b&c, 16 threads:
  Real time             =    0,17 sec. (36,02 ticks)
  Sync time (average)   =    0,14 sec.
  Wait time (average)   =    0,00 sec.
                          ------------
Total (root+branch&cut) =    0,66 sec. (220,46 ticks)
